NAME          ClpDefau  FREE
ROWS
 N  OBJROW
 L  ZMUNI1_PCT
 L  ZMUNI2_PCT
 L  ZMUNI3_PCT
 L  ZMUNI4_PCT
 L  ZMUNI5_PCT
 L  ZMUNI6_PCT
 L  ZMUNI7_PCT
 L  ZMUNI8_PCT
 L  ZMUNI9_PCT
COLUMNS
    QMUNI1 OBJROW 1.          
    QMUNI1 ZMUNI1_PCT 27846.14563 
    QMUNI1 ZMUNI2_PCT 1683.90274  
    QMUNI1 ZMUNI3_PCT 4158.59222  
    QMUNI1 ZMUNI4_PCT 2988.00468  
    QMUNI1 ZMUNI5_PCT  -390.95879 
    QMUNI1 ZMUNI6_PCT  -172.61506 
    QMUNI1 ZMUNI7_PCT 1354.4083   
    QMUNI1 ZMUNI8_PCT 1126.194    
    QMUNI1 ZMUNI9_PCT 401.78299   
    QMUNI2 OBJROW 1.          
    QMUNI2 ZMUNI1_PCT 1600.21782  
    QMUNI2 ZMUNI2_PCT 32623.14797 
    QMUNI2 ZMUNI3_PCT 2422.61886  
    QMUNI2 ZMUNI4_PCT 2560.68706  
    QMUNI2 ZMUNI5_PCT  -38.00392  
    QMUNI2 ZMUNI6_PCT 5.57899     
    QMUNI2 ZMUNI7_PCT 704.3839    
    QMUNI2 ZMUNI8_PCT 960.2546    
    QMUNI2 ZMUNI9_PCT 899.02878   
    QMUNI3 OBJROW 1.          
    QMUNI3 ZMUNI1_PCT 4093.12248  
    QMUNI3 ZMUNI2_PCT 2457.52335  
    QMUNI3 ZMUNI3_PCT 29146.09909 
    QMUNI3 ZMUNI4_PCT 4949.2836   
    QMUNI3 ZMUNI5_PCT 14.925      
    QMUNI3 ZMUNI6_PCT 154.16145   
    QMUNI3 ZMUNI7_PCT 1351.738    
    QMUNI3 ZMUNI8_PCT 1265.1443   
    QMUNI3 ZMUNI9_PCT 496.95969   
    QMUNI4 OBJROW 1.          
    QMUNI4 ZMUNI1_PCT 3515.43426  
    QMUNI4 ZMUNI2_PCT 3129.43459  
    QMUNI4 ZMUNI3_PCT 5708.50372  
    QMUNI4 ZMUNI4_PCT 101249.57561
    QMUNI4 ZMUNI5_PCT 368.78586   
    QMUNI4 ZMUNI6_PCT 470.44754   
    QMUNI4 ZMUNI7_PCT 1484.108    
    QMUNI4 ZMUNI8_PCT 1480.0071   
    QMUNI4 ZMUNI9_PCT 937.55722   
    QMUNI5 OBJROW 1.          
    QMUNI5 ZMUNI1_PCT 149.44077   
    QMUNI5 ZMUNI2_PCT 32.56798    
    QMUNI5 ZMUNI3_PCT 98.70529    
    QMUNI5 ZMUNI4_PCT 69.0937     
    QMUNI5 ZMUNI5_PCT 31459.04541 
    QMUNI5 ZMUNI6_PCT 2537.48893  
    QMUNI5 ZMUNI7_PCT 202.9419    
    QMUNI5 ZMUNI8_PCT 87.6426     
    QMUNI5 ZMUNI9_PCT 42.62925    
    QMUNI6 OBJROW 1.          
    QMUNI6 ZMUNI1_PCT 45.82405    
    QMUNI6 ZMUNI2_PCT  -160.78949 
    QMUNI6 ZMUNI3_PCT  -50.06791  
    QMUNI6 ZMUNI4_PCT  -86.28369  
    QMUNI6 ZMUNI5_PCT 2316.71333  
    QMUNI6 ZMUNI6_PCT 30111.69433 
    QMUNI6 ZMUNI7_PCT 151.4435    
    QMUNI6 ZMUNI8_PCT  -83.1604   
    QMUNI6 ZMUNI9_PCT  -293.06411 
    QMUNI7 OBJROW 1.          
    QMUNI7 ZMUNI1_PCT 1087.99934  
    QMUNI7 ZMUNI2_PCT 496.24443   
    QMUNI7 ZMUNI3_PCT 906.8489    
    QMUNI7 ZMUNI4_PCT 639.03331   
    QMUNI7 ZMUNI5_PCT  -173.75946 
    QMUNI7 ZMUNI6_PCT 12.54081    
    QMUNI7 ZMUNI7_PCT 26132.2022  
    QMUNI7 ZMUNI8_PCT 1765.3465   
    QMUNI7 ZMUNI9_PCT 203.99094   
    QMUNI8 OBJROW 1.          
    QMUNI8 ZMUNI1_PCT 1575.27924  
    QMUNI8 ZMUNI2_PCT 1391.5062   
    QMUNI8 ZMUNI3_PCT 1592.44537  
    QMUNI8 ZMUNI4_PCT 1276.51691  
    QMUNI8 ZMUNI5_PCT 473.59466   
    QMUNI8 ZMUNI6_PCT 600.19493   
    QMUNI8 ZMUNI7_PCT 3075.9812   
    QMUNI8 ZMUNI8_PCT 26659.3933  
    QMUNI8 ZMUNI9_PCT 2360.4393   
    QMUNI9 OBJROW 1.          
    QMUNI9 ZMUNI1_PCT 203.99094   
    QMUNI9 ZMUNI2_PCT 498.29483   
    QMUNI9 ZMUNI3_PCT 289.53552   
    QMUNI9 ZMUNI4_PCT 243.83068   
    QMUNI9 ZMUNI5_PCT  -282.33528 
    QMUNI9 ZMUNI6_PCT  -259.54247 
    QMUNI9 ZMUNI7_PCT 323.1049    
    QMUNI9 ZMUNI8_PCT 775.2418    
    QMUNI9 ZMUNI9_PCT 23568.82096 
RHS
    RHS ZMUNI1_PCT  -2.23966624
    RHS ZMUNI2_PCT  -2.3813192 
    RHS ZMUNI3_PCT  -2.71150533
    RHS ZMUNI4_PCT  -4.10125899
    RHS ZMUNI5_PCT  -1.42286423
    RHS ZMUNI6_PCT  -1.7500214 
    RHS ZMUNI7_PCT  -1.49315835
    RHS ZMUNI8_PCT  -1.85979498
    RHS ZMUNI9_PCT  -2.80240029
BOUNDS
 LO BOUND QMUNI1 -0.001201695
 UP BOUND QMUNI1      1.1e+10
 LO BOUND QMUNI2 -0.00088683 
 UP BOUND QMUNI2      1.1e+10
 LO BOUND QMUNI3 -0.000965916
 UP BOUND QMUNI3      1.1e+10
 LO BOUND QMUNI4 -0.000342553
 UP BOUND QMUNI4      1.1e+10
 LO BOUND QMUNI5 -0.000801878
 UP BOUND QMUNI5      1.1e+10
 LO BOUND QMUNI6 -0.000989808
 UP BOUND QMUNI6      1.1e+10
 LO BOUND QMUNI7 -0.00067378 
 UP BOUND QMUNI7      1.1e+10
 LO BOUND QMUNI8 -0.000779721
 UP BOUND QMUNI8      1.1e+10
 LO BOUND QMUNI9 -0.000922163
 UP BOUND QMUNI9      1.1e+10
ENDATA
